Maximize
  - 2.9730579611062 edge_0_1_0_0 - 2.890622400554 edge_0_2_0_0
   - 2.9116696505996 edge_0_3_0_0 - 2.1160150796184 edge_0_4_0_0
   - 3.044749699998 edge_0_6_0_0 - 1.7016741402526 edge_0_9_0_0
   - 1.3328072943957 edge_0_11_0_0 + 3.114111745923968 edge_1_2_0_0
   + 0.8718706189617131 edge_1_3_0_0 + 0.7791449061685373 edge_1_4_0_0
   + 0.5038488721822784 edge_1_5_0_0 + 0.0352266072198828 edge_1_6_0_0
   + 0.1791285792131772 edge_1_7_0_0 + 0.6213035038466044 edge_1_8_0_0
   + 0.1013347064015201 edge_1_9_0_0 - 0.4523578060578296 edge_1_11_0_0
   + 0.06324665205974 edge_1_12_0_0 + 0.3875417719704286 edge_1_13_0_0
   - 0.5625062833203101 edge_1_14_0_0 + 0.3911493147297959 edge_1_15_0_0
   + 0.1376147182617366 edge_1_16_0_0 - 0.8731120640900512 edge_1_17_0_0
   + 0.4809291338499508 edge_1_19_0_0 - 1.010518809588508 edge_1_21_0_0
   + 0.8951451170399399 edge_1_22_0_0 + 2.662526869253539 edge_2_1_0_0
   + 0.3263729671590392 edge_2_3_0_0 + 0.0630560653648805 edge_2_4_0_0
   - 0.5372679446139077 edge_2_5_0_0 - 0.4820090192456105 edge_2_6_0_0
   - 0.058564663796531 edge_2_7_0_0 + 0.0588458511511167 edge_2_8_0_0
   - 0.3969103568759334 edge_2_9_0_0 - 1.127746033569105 edge_2_11_0_0
   - 0.3863398076883736 edge_2_13_0_0 - 0.4108800072652196 edge_2_22_0_0
   + 0.083141145186132 edge_3_1_0_0 + 0.9597649225790655 edge_3_2_0_0
   + 0.4046167813272533 edge_3_4_0_0 - 0.1564958782290304 edge_3_5_0_0
   + 0.1231642176616303 edge_3_6_0_0 + 0.28740824354592 edge_3_7_0_0
   + 0.0657611244138441 edge_3_8_0_0 - 0.0653941777687043 edge_3_9_0_0
   - 0.9169350096562255 edge_3_10_0_0 - 0.7010784926781708 edge_3_11_0_0
   - 0.1171263092532512 edge_3_12_0_0 - 0.0621172284552012 edge_3_13_0_0
   - 0.6590283530218634 edge_3_14_0_0 - 0.1132289941582691 edge_3_15_0_0
   - 2.58866 edge_3_17_0_0 - 0.9957861475699999 edge_3_19_0_0
   - 2.1864290816994 edge_3_21_0_0 + 0.422971 edge_3_22_0_0
   + 1.767549169819947 edge_4_1_0_0 + 2.579073939475086 edge_4_2_0_0
   + 2.629779211066 edge_4_3_0_0 + 1.473904525822183 edge_4_5_0_0
   + 2.994608742263908 edge_4_6_0_0 + 1.531248264008783 edge_4_7_0_0
   + 2.596681662177808 edge_4_8_0_0 + 2.50532894776149 edge_4_9_0_0
   - 0.3157498590678114 edge_4_10_0_0 + 0.7347228340596291 edge_4_11_0_0
   + 1.322813547802317 edge_4_12_0_0 + 0.1734279177967128 edge_4_13_0_0
   + 0.9627353947875349 edge_4_14_0_0 + 0.9531597481355933 edge_4_15_0_0
   - 0.1172648093759751 edge_4_16_0_0 + 0.2736284081791184 edge_4_17_0_0
   + 1.117524328828601 edge_4_19_0_0 - 0.3318889562029832 edge_4_21_0_0
   + 5.718838284348 edge_4_22_0_0 + 0.6426876803276552 edge_5_6_0_0
   + 0.4296855911267347 edge_5_8_0_0 + 0.384277554697796 edge_5_9_0_0
   + 0.2660831002050361 edge_6_1_0_0 + 0.2204766290169961 edge_6_2_0_0
   + 0.1656492579043254 edge_6_3_0_0 + 0.3668612229338617 edge_6_4_0_0
   + 3.375151359591388 edge_6_5_0_0 + 0.5957057918398965 edge_6_7_0_0
   + 0.6282134453208268 edge_6_8_0_0 + 0.8310066273238145 edge_6_9_0_0
   + 0.1517878378081854 edge_6_10_0_0 + 0.1086030205022908 edge_6_11_0_0
   + 0.6584016560126418 edge_6_12_0_0 - 0.067274413100951 edge_6_13_0_0
   + 0.5561655536344176 edge_6_14_0_0 + 0.5212325760561233 edge_6_15_0_0
   - 0.1880149586471591 edge_6_16_0_0 + 0.2039409041156831 edge_6_17_0_0
   + 1.761398266281183 edge_6_19_0_0 + 0.2360903406264639 edge_6_21_0_0
   + 2.759080159796209 edge_6_22_0_0 - 0.3188283259425176 edge_8_5_0_0
   - 0.5272775305958003 edge_8_6_0_0 + 0.0633489212611628 edge_8_9_0_0
   - 0.021322247216493 edge_9_1_0_0 + 0.4744817607541619 edge_9_2_0_0
   + 0.6175469258943599 edge_9_3_0_0 + 0.2314259028010883 edge_9_4_0_0
   + 0.00299915 edge_9_5_0_0 + 0.00783683811915851 edge_9_6_0_0
   + 1.0634848716143 edge_9_7_0_0 + 0.019156577171908 edge_9_8_0_0
   + 1.33126440729027 edge_9_10_0_0 + 3.682176286634792 edge_9_11_0_0
   + 2.184491546935983 edge_9_12_0_0 + 0.231007380898631 edge_9_13_0_0
   + 2.1994197360696 edge_9_14_0_0 + 1.846242238524505 edge_9_15_0_0
   - 0.1008631488997241 edge_9_16_0_0 + 1.3233898411932 edge_9_17_0_0
   + 1.715850898783867 edge_9_19_0_0 - 0.6828139498130112 edge_9_20_0_0
   + 0.2591327173437928 edge_9_21_0_0 + 4.8341194199056 edge_9_22_0_0
   + 0.0477763064256131 edge_10_11_0_0 - 0.044009592616332 edge_10_14_0_0
   - 0.6039984462906851 edge_11_1_0_0 - 0.1267692688176919 edge_11_2_0_0
   - 0.1180457462011287 edge_11_3_0_0 + 0.0317453596573481 edge_11_4_0_0
   + 0.036958536794224 edge_11_5_0_0 + 0.1809940825719265 edge_11_6_0_0
   + 0.1569020950452922 edge_11_7_0_0 - 0.3044370702598928 edge_11_8_0_0
   + 1.034370007905222 edge_11_9_0_0 + 3.526829104760787 edge_11_10_0_0
   + 1.393709953947423 edge_11_12_0_0 + 0.1754488612698986 edge_11_13_0_0
   + 1.915637893092 edge_11_14_0_0 + 1.552247987450919 edge_11_15_0_0
   - 0.1946165735607837 edge_11_16_0_0 + 0.86939550538568 edge_11_17_0_0
   + 2.911294389372174 edge_11_19_0_0 - 0.2798968890770417 edge_11_20_0_0
   + 0.6509106128346278 edge_11_21_0_0 + 2.742762951084107 edge_11_22_0_0
   - 0.438770173987094 edge_12_14_0_0 - 0.4529477374594199 edge_13_5_0_0
   - 0.6789405778008287 edge_13_6_0_0 + 0.5196287606883898 edge_13_14_0_0
   - 0.1963968959515446 edge_13_15_0_0
   + 8.9406749343790384e-04 edge_13_16_0_0
   - 0.5700117077537165 edge_13_17_0_0 - 0.1079190452408478 edge_13_19_0_0
   - 0.291347283544051 edge_14_1_0_0 - 0.9681812843605933 edge_14_2_0_0
   - 0.5211899981867519 edge_14_3_0_0 - 0.3241195820715047 edge_14_4_0_0
   + 0.5680280353661425 edge_14_5_0_0 - 0.4402830221943952 edge_14_6_0_0
   - 0.29492220751695 edge_14_7_0_0 + 0.012339653600657 edge_14_8_0_0
   + 0.2080543303352111 edge_14_9_0_0 + 0.77374811205 edge_14_10_0_0
   - 0.22463458030048 edge_14_11_0_0 + 0.7757311295292166 edge_14_12_0_0
   + 3.2235717476352 edge_14_13_0_0 + 2.533321272728256 edge_14_15_0_0
   + 0.9327630760723412 edge_14_16_0_0 + 1.658928606498997 edge_14_17_0_0
   + 2.611649447684 edge_14_19_0_0 + 0.0125757078774553 edge_14_20_0_0
   + 1.950528974671391 edge_14_21_0_0 + 2.378127146244847 edge_14_22_0_0
   - 0.5159258955050264 edge_15_13_0_0 - 0.8003456079283902 edge_15_14_0_0
   - 0.0364986838213337 edge_15_16_0_0 - 0.3728934970382484 edge_15_17_0_0
   + 0.0329268984869946 edge_16_13_0_0 - 0.2710992092936142 edge_16_14_0_0
   + 0.2483938936067989 edge_16_15_0_0 + 0.9398118816721074 edge_16_17_0_0
   + 0.4352123215404433 edge_16_19_0_0 + 0.0161932194979022 edge_16_21_0_0
   + 0.0746403948298018 edge_16_22_0_0 - 0.9428257633179821 edge_17_2_0_0
   - 0.2072697559570402 edge_17_5_0_0 - 0.2943294459017702 edge_17_10_0_0
   - 0.82882776177544 edge_17_11_0_0 - 0.1068856533061789 edge_17_12_0_0
   + 0.9393100152893468 edge_17_13_0_0 + 0.2005058315749838 edge_17_14_0_0
   + 0.5314939270334677 edge_17_15_0_0 + 3.14125214685 edge_17_16_0_0
   + 2.405172267035 edge_17_19_0_0 + 0.7291596141166058 edge_17_20_0_0
   + 2.428170749664883 edge_17_21_0_0 + 2.225978397294616 edge_17_22_0_0
   - 0.4612823824466579 edge_19_16_0_0 - 0.5769587848340347 edge_19_17_0_0
   + 0.093897712366288 edge_19_20_0_0 - 0.1177635019986124 edge_19_21_0_0
   - 0.5174625131106501 edge_21_4_0_0 - 0.5529424093688899 edge_21_13_0_0
   - 0.3533197668088 edge_21_14_0_0 - 0.44703977155266 edge_21_15_0_0
   + 0.63689426203514 edge_21_16_0_0 + 0.30101594581712 edge_21_17_0_0
   + 0.440678354973604 edge_21_19_0_0 + 2.747001484272092 edge_21_20_0_0
   + 1.927448959177 edge_21_22_0_0 - 0.8988170818891136 edge_22_20_0_0
   - 0.157038688034289 edge_22_21_0_0
Subject To
 one_parent_1: edge_0_1_0_0 + edge_2_1_0_0 + edge_3_1_0_0 + edge_4_1_0_0
   + edge_6_1_0_0 + edge_9_1_0_0 + edge_11_1_0_0 + edge_14_1_0_0 = 1
 consume_one_flow_unit_1: flow_0_1_0_0 - flow_1_2_0_0 - flow_1_3_0_0
   - flow_1_4_0_0 - flow_1_5_0_0 - flow_1_6_0_0 - flow_1_7_0_0
   - flow_1_8_0_0 - flow_1_9_0_0 - flow_1_11_0_0 - flow_1_12_0_0
   - flow_1_13_0_0 - flow_1_14_0_0 - flow_1_15_0_0 - flow_1_16_0_0
   - flow_1_17_0_0 - flow_1_19_0_0 - flow_1_21_0_0 - flow_1_22_0_0
   + flow_2_1_0_0 + flow_3_1_0_0 + flow_4_1_0_0 + flow_6_1_0_0
   + flow_9_1_0_0 + flow_11_1_0_0 + flow_14_1_0_0 = 1
 one_parent_2: edge_0_2_0_0 + edge_1_2_0_0 + edge_3_2_0_0 + edge_4_2_0_0
   + edge_6_2_0_0 + edge_9_2_0_0 + edge_11_2_0_0 + edge_14_2_0_0
   + edge_17_2_0_0 = 1
 consume_one_flow_unit_2: flow_0_2_0_0 + flow_1_2_0_0 - flow_2_1_0_0
   - flow_2_3_0_0 - flow_2_4_0_0 - flow_2_5_0_0 - flow_2_6_0_0
   - flow_2_7_0_0 - flow_2_8_0_0 - flow_2_9_0_0 - flow_2_11_0_0
   - flow_2_13_0_0 - flow_2_22_0_0 + flow_3_2_0_0 + flow_4_2_0_0
   + flow_6_2_0_0 + flow_9_2_0_0 + flow_11_2_0_0 + flow_14_2_0_0
   + flow_17_2_0_0 = 1
 one_parent_3: edge_0_3_0_0 + edge_1_3_0_0 + edge_2_3_0_0 + edge_4_3_0_0
   + edge_6_3_0_0 + edge_9_3_0_0 + edge_11_3_0_0 + edge_14_3_0_0 = 1
 consume_one_flow_unit_3: flow_0_3_0_0 + flow_1_3_0_0 + flow_2_3_0_0
   - flow_3_1_0_0 - flow_3_2_0_0 - flow_3_4_0_0 - flow_3_5_0_0
   - flow_3_6_0_0 - flow_3_7_0_0 - flow_3_8_0_0 - flow_3_9_0_0
   - flow_3_10_0_0 - flow_3_11_0_0 - flow_3_12_0_0 - flow_3_13_0_0
   - flow_3_14_0_0 - flow_3_15_0_0 - flow_3_17_0_0 - flow_3_19_0_0
   - flow_3_21_0_0 - flow_3_22_0_0 + flow_4_3_0_0 + flow_6_3_0_0
   + flow_9_3_0_0 + flow_11_3_0_0 + flow_14_3_0_0 = 1
 one_parent_4: edge_0_4_0_0 + edge_1_4_0_0 + edge_2_4_0_0 + edge_3_4_0_0
   + edge_6_4_0_0 + edge_9_4_0_0 + edge_11_4_0_0 + edge_14_4_0_0
   + edge_21_4_0_0 = 1
 consume_one_flow_unit_4: flow_0_4_0_0 + flow_1_4_0_0 + flow_2_4_0_0
   + flow_3_4_0_0 - flow_4_1_0_0 - flow_4_2_0_0 - flow_4_3_0_0
   - flow_4_5_0_0 - flow_4_6_0_0 - flow_4_7_0_0 - flow_4_8_0_0
   - flow_4_9_0_0 - flow_4_10_0_0 - flow_4_11_0_0 - flow_4_12_0_0
   - flow_4_13_0_0 - flow_4_14_0_0 - flow_4_15_0_0 - flow_4_16_0_0
   - flow_4_17_0_0 - flow_4_19_0_0 - flow_4_21_0_0 - flow_4_22_0_0
   + flow_6_4_0_0 + flow_9_4_0_0 + flow_11_4_0_0 + flow_14_4_0_0
   + flow_21_4_0_0 = 1
 one_parent_5: edge_1_5_0_0 + edge_2_5_0_0 + edge_3_5_0_0 + edge_4_5_0_0
   + edge_6_5_0_0 + edge_8_5_0_0 + edge_9_5_0_0 + edge_11_5_0_0
   + edge_13_5_0_0 + edge_14_5_0_0 + edge_17_5_0_0 = 1
 consume_one_flow_unit_5: flow_1_5_0_0 + flow_2_5_0_0 + flow_3_5_0_0
   + flow_4_5_0_0 - flow_5_6_0_0 - flow_5_8_0_0 - flow_5_9_0_0
   + flow_6_5_0_0 + flow_8_5_0_0 + flow_9_5_0_0 + flow_11_5_0_0
   + flow_13_5_0_0 + flow_14_5_0_0 + flow_17_5_0_0 = 1
 one_parent_6: edge_0_6_0_0 + edge_1_6_0_0 + edge_2_6_0_0 + edge_3_6_0_0
   + edge_4_6_0_0 + edge_5_6_0_0 + edge_8_6_0_0 + edge_9_6_0_0
   + edge_11_6_0_0 + edge_13_6_0_0 + edge_14_6_0_0 = 1
 consume_one_flow_unit_6: flow_0_6_0_0 + flow_1_6_0_0 + flow_2_6_0_0
   + flow_3_6_0_0 + flow_4_6_0_0 + flow_5_6_0_0 - flow_6_1_0_0
   - flow_6_2_0_0 - flow_6_3_0_0 - flow_6_4_0_0 - flow_6_5_0_0
   - flow_6_7_0_0 - flow_6_8_0_0 - flow_6_9_0_0 - flow_6_10_0_0
   - flow_6_11_0_0 - flow_6_12_0_0 - flow_6_13_0_0 - flow_6_14_0_0
   - flow_6_15_0_0 - flow_6_16_0_0 - flow_6_17_0_0 - flow_6_19_0_0
   - flow_6_21_0_0 - flow_6_22_0_0 + flow_8_6_0_0 + flow_9_6_0_0
   + flow_11_6_0_0 + flow_13_6_0_0 + flow_14_6_0_0 = 1
 one_parent_7: edge_1_7_0_0 + edge_2_7_0_0 + edge_3_7_0_0 + edge_4_7_0_0
   + edge_6_7_0_0 + edge_9_7_0_0 + edge_11_7_0_0 + edge_14_7_0_0 = 1
 consume_one_flow_unit_7: flow_1_7_0_0 + flow_2_7_0_0 + flow_3_7_0_0
   + flow_4_7_0_0 + flow_6_7_0_0 + flow_9_7_0_0 + flow_11_7_0_0
   + flow_14_7_0_0 = 1
 one_parent_8: edge_1_8_0_0 + edge_2_8_0_0 + edge_3_8_0_0 + edge_4_8_0_0
   + edge_5_8_0_0 + edge_6_8_0_0 + edge_9_8_0_0 + edge_11_8_0_0
   + edge_14_8_0_0 = 1
 consume_one_flow_unit_8: flow_1_8_0_0 + flow_2_8_0_0 + flow_3_8_0_0
   + flow_4_8_0_0 + flow_5_8_0_0 + flow_6_8_0_0 - flow_8_5_0_0
   - flow_8_6_0_0 - flow_8_9_0_0 + flow_9_8_0_0 + flow_11_8_0_0
   + flow_14_8_0_0 = 1
 one_parent_9: edge_0_9_0_0 + edge_1_9_0_0 + edge_2_9_0_0 + edge_3_9_0_0
   + edge_4_9_0_0 + edge_5_9_0_0 + edge_6_9_0_0 + edge_8_9_0_0
   + edge_11_9_0_0 + edge_14_9_0_0 = 1
 consume_one_flow_unit_9: flow_0_9_0_0 + flow_1_9_0_0 + flow_2_9_0_0
   + flow_3_9_0_0 + flow_4_9_0_0 + flow_5_9_0_0 + flow_6_9_0_0
   + flow_8_9_0_0 - flow_9_1_0_0 - flow_9_2_0_0 - flow_9_3_0_0
   - flow_9_4_0_0 - flow_9_5_0_0 - flow_9_6_0_0 - flow_9_7_0_0
   - flow_9_8_0_0 - flow_9_10_0_0 - flow_9_11_0_0 - flow_9_12_0_0
   - flow_9_13_0_0 - flow_9_14_0_0 - flow_9_15_0_0 - flow_9_16_0_0
   - flow_9_17_0_0 - flow_9_19_0_0 - flow_9_20_0_0 - flow_9_21_0_0
   - flow_9_22_0_0 + flow_11_9_0_0 + flow_14_9_0_0 = 1
 one_parent_10: edge_3_10_0_0 + edge_4_10_0_0 + edge_6_10_0_0
   + edge_9_10_0_0 + edge_11_10_0_0 + edge_14_10_0_0 + edge_17_10_0_0 = 1
 consume_one_flow_unit_10: flow_3_10_0_0 + flow_4_10_0_0 + flow_6_10_0_0
   + flow_9_10_0_0 - flow_10_11_0_0 - flow_10_14_0_0 + flow_11_10_0_0
   + flow_14_10_0_0 + flow_17_10_0_0 = 1
 one_parent_11: edge_0_11_0_0 + edge_1_11_0_0 + edge_2_11_0_0
   + edge_3_11_0_0 + edge_4_11_0_0 + edge_6_11_0_0 + edge_9_11_0_0
   + edge_10_11_0_0 + edge_14_11_0_0 + edge_17_11_0_0 = 1
 consume_one_flow_unit_11: flow_0_11_0_0 + flow_1_11_0_0 + flow_2_11_0_0
   + flow_3_11_0_0 + flow_4_11_0_0 + flow_6_11_0_0 + flow_9_11_0_0
   + flow_10_11_0_0 - flow_11_1_0_0 - flow_11_2_0_0 - flow_11_3_0_0
   - flow_11_4_0_0 - flow_11_5_0_0 - flow_11_6_0_0 - flow_11_7_0_0
   - flow_11_8_0_0 - flow_11_9_0_0 - flow_11_10_0_0 - flow_11_12_0_0
   - flow_11_13_0_0 - flow_11_14_0_0 - flow_11_15_0_0 - flow_11_16_0_0
   - flow_11_17_0_0 - flow_11_19_0_0 - flow_11_20_0_0 - flow_11_21_0_0
   - flow_11_22_0_0 + flow_14_11_0_0 + flow_17_11_0_0 = 1
 one_parent_12: edge_1_12_0_0 + edge_3_12_0_0 + edge_4_12_0_0
   + edge_6_12_0_0 + edge_9_12_0_0 + edge_11_12_0_0 + edge_14_12_0_0
   + edge_17_12_0_0 = 1
 consume_one_flow_unit_12: flow_1_12_0_0 + flow_3_12_0_0 + flow_4_12_0_0
   + flow_6_12_0_0 + flow_9_12_0_0 + flow_11_12_0_0 - flow_12_14_0_0
   + flow_14_12_0_0 + flow_17_12_0_0 = 1
 one_parent_13: edge_1_13_0_0 + edge_2_13_0_0 + edge_3_13_0_0
   + edge_4_13_0_0 + edge_6_13_0_0 + edge_9_13_0_0 + edge_11_13_0_0
   + edge_14_13_0_0 + edge_15_13_0_0 + edge_16_13_0_0 + edge_17_13_0_0
   + edge_21_13_0_0 = 1
 consume_one_flow_unit_13: flow_1_13_0_0 + flow_2_13_0_0 + flow_3_13_0_0
   + flow_4_13_0_0 + flow_6_13_0_0 + flow_9_13_0_0 + flow_11_13_0_0
   - flow_13_5_0_0 - flow_13_6_0_0 - flow_13_14_0_0 - flow_13_15_0_0
   - flow_13_16_0_0 - flow_13_17_0_0 - flow_13_19_0_0 + flow_14_13_0_0
   + flow_15_13_0_0 + flow_16_13_0_0 + flow_17_13_0_0 + flow_21_13_0_0 = 1
 one_parent_14: edge_1_14_0_0 + edge_3_14_0_0 + edge_4_14_0_0
   + edge_6_14_0_0 + edge_9_14_0_0 + edge_10_14_0_0 + edge_11_14_0_0
   + edge_12_14_0_0 + edge_13_14_0_0 + edge_15_14_0_0 + edge_16_14_0_0
   + edge_17_14_0_0 + edge_21_14_0_0 = 1
 consume_one_flow_unit_14: flow_1_14_0_0 + flow_3_14_0_0 + flow_4_14_0_0
   + flow_6_14_0_0 + flow_9_14_0_0 + flow_10_14_0_0 + flow_11_14_0_0
   + flow_12_14_0_0 + flow_13_14_0_0 - flow_14_1_0_0 - flow_14_2_0_0
   - flow_14_3_0_0 - flow_14_4_0_0 - flow_14_5_0_0 - flow_14_6_0_0
   - flow_14_7_0_0 - flow_14_8_0_0 - flow_14_9_0_0 - flow_14_10_0_0
   - flow_14_11_0_0 - flow_14_12_0_0 - flow_14_13_0_0 - flow_14_15_0_0
   - flow_14_16_0_0 - flow_14_17_0_0 - flow_14_19_0_0 - flow_14_20_0_0
   - flow_14_21_0_0 - flow_14_22_0_0 + flow_15_14_0_0 + flow_16_14_0_0
   + flow_17_14_0_0 + flow_21_14_0_0 = 1
 one_parent_15: edge_1_15_0_0 + edge_3_15_0_0 + edge_4_15_0_0
   + edge_6_15_0_0 + edge_9_15_0_0 + edge_11_15_0_0 + edge_13_15_0_0
   + edge_14_15_0_0 + edge_16_15_0_0 + edge_17_15_0_0 + edge_21_15_0_0 = 1
 consume_one_flow_unit_15: flow_1_15_0_0 + flow_3_15_0_0 + flow_4_15_0_0
   + flow_6_15_0_0 + flow_9_15_0_0 + flow_11_15_0_0 + flow_13_15_0_0
   + flow_14_15_0_0 - flow_15_13_0_0 - flow_15_14_0_0 - flow_15_16_0_0
   - flow_15_17_0_0 + flow_16_15_0_0 + flow_17_15_0_0 + flow_21_15_0_0 = 1
 one_parent_16: edge_1_16_0_0 + edge_4_16_0_0 + edge_6_16_0_0
   + edge_9_16_0_0 + edge_11_16_0_0 + edge_13_16_0_0 + edge_14_16_0_0
   + edge_15_16_0_0 + edge_17_16_0_0 + edge_19_16_0_0 + edge_21_16_0_0 = 1
 consume_one_flow_unit_16: flow_1_16_0_0 + flow_4_16_0_0 + flow_6_16_0_0
   + flow_9_16_0_0 + flow_11_16_0_0 + flow_13_16_0_0 + flow_14_16_0_0
   + flow_15_16_0_0 - flow_16_13_0_0 - flow_16_14_0_0 - flow_16_15_0_0
   - flow_16_17_0_0 - flow_16_19_0_0 - flow_16_21_0_0 - flow_16_22_0_0
   + flow_17_16_0_0 + flow_19_16_0_0 + flow_21_16_0_0 = 1
 one_parent_17: edge_1_17_0_0 + edge_3_17_0_0 + edge_4_17_0_0
   + edge_6_17_0_0 + edge_9_17_0_0 + edge_11_17_0_0 + edge_13_17_0_0
   + edge_14_17_0_0 + edge_15_17_0_0 + edge_16_17_0_0 + edge_19_17_0_0
   + edge_21_17_0_0 = 1
 consume_one_flow_unit_17: flow_1_17_0_0 + flow_3_17_0_0 + flow_4_17_0_0
   + flow_6_17_0_0 + flow_9_17_0_0 + flow_11_17_0_0 + flow_13_17_0_0
   + flow_14_17_0_0 + flow_15_17_0_0 + flow_16_17_0_0 - flow_17_2_0_0
   - flow_17_5_0_0 - flow_17_10_0_0 - flow_17_11_0_0 - flow_17_12_0_0
   - flow_17_13_0_0 - flow_17_14_0_0 - flow_17_15_0_0 - flow_17_16_0_0
   - flow_17_19_0_0 - flow_17_20_0_0 - flow_17_21_0_0 - flow_17_22_0_0
   + flow_19_17_0_0 + flow_21_17_0_0 = 1
 one_parent_18: = 1
 consume_one_flow_unit_18: = 1
 one_parent_19: edge_1_19_0_0 + edge_3_19_0_0 + edge_4_19_0_0
   + edge_6_19_0_0 + edge_9_19_0_0 + edge_11_19_0_0 + edge_13_19_0_0
   + edge_14_19_0_0 + edge_16_19_0_0 + edge_17_19_0_0 + edge_21_19_0_0 = 1
 consume_one_flow_unit_19: flow_1_19_0_0 + flow_3_19_0_0 + flow_4_19_0_0
   + flow_6_19_0_0 + flow_9_19_0_0 + flow_11_19_0_0 + flow_13_19_0_0
   + flow_14_19_0_0 + flow_16_19_0_0 + flow_17_19_0_0 - flow_19_16_0_0
   - flow_19_17_0_0 - flow_19_20_0_0 - flow_19_21_0_0 + flow_21_19_0_0 = 1
 one_parent_20: edge_9_20_0_0 + edge_11_20_0_0 + edge_14_20_0_0
   + edge_17_20_0_0 + edge_19_20_0_0 + edge_21_20_0_0 + edge_22_20_0_0 = 1
 consume_one_flow_unit_20: flow_9_20_0_0 + flow_11_20_0_0 + flow_14_20_0_0
   + flow_17_20_0_0 + flow_19_20_0_0 + flow_21_20_0_0 + flow_22_20_0_0 = 1
 one_parent_21: edge_1_21_0_0 + edge_3_21_0_0 + edge_4_21_0_0
   + edge_6_21_0_0 + edge_9_21_0_0 + edge_11_21_0_0 + edge_14_21_0_0
   + edge_16_21_0_0 + edge_17_21_0_0 + edge_19_21_0_0 + edge_22_21_0_0 = 1
 consume_one_flow_unit_21: flow_1_21_0_0 + flow_3_21_0_0 + flow_4_21_0_0
   + flow_6_21_0_0 + flow_9_21_0_0 + flow_11_21_0_0 + flow_14_21_0_0
   + flow_16_21_0_0 + flow_17_21_0_0 + flow_19_21_0_0 - flow_21_4_0_0
   - flow_21_13_0_0 - flow_21_14_0_0 - flow_21_15_0_0 - flow_21_16_0_0
   - flow_21_17_0_0 - flow_21_19_0_0 - flow_21_20_0_0 - flow_21_22_0_0
   + flow_22_21_0_0 = 1
 one_parent_22: edge_1_22_0_0 + edge_2_22_0_0 + edge_3_22_0_0
   + edge_4_22_0_0 + edge_6_22_0_0 + edge_9_22_0_0 + edge_11_22_0_0
   + edge_14_22_0_0 + edge_16_22_0_0 + edge_17_22_0_0 + edge_21_22_0_0 = 1
 consume_one_flow_unit_22: flow_1_22_0_0 + flow_2_22_0_0 + flow_3_22_0_0
   + flow_4_22_0_0 + flow_6_22_0_0 + flow_9_22_0_0 + flow_11_22_0_0
   + flow_14_22_0_0 + flow_16_22_0_0 + flow_17_22_0_0 + flow_21_22_0_0
   - flow_22_20_0_0 - flow_22_21_0_0 = 1
 root_flow: flow_0_1_0_0 + flow_0_2_0_0 + flow_0_3_0_0 + flow_0_4_0_0
   + flow_0_6_0_0 + flow_0_9_0_0 + flow_0_11_0_0 = 22
 inactive_no_flow_0_1_0_0: flow_0_1_0_0 - 1000 edge_0_1_0_0 <= 0
 inactive_no_flow_0_2_0_0: flow_0_2_0_0 - 1000 edge_0_2_0_0 <= 0
 inactive_no_flow_0_3_0_0: flow_0_3_0_0 - 1000 edge_0_3_0_0 <= 0
 inactive_no_flow_0_4_0_0: flow_0_4_0_0 - 1000 edge_0_4_0_0 <= 0
 inactive_no_flow_0_6_0_0: flow_0_6_0_0 - 1000 edge_0_6_0_0 <= 0
 inactive_no_flow_0_9_0_0: flow_0_9_0_0 - 1000 edge_0_9_0_0 <= 0
 inactive_no_flow_0_11_0_0: flow_0_11_0_0 - 1000 edge_0_11_0_0 <= 0
 inactive_no_flow_1_2_0_0: flow_1_2_0_0 - 1000 edge_1_2_0_0 <= 0
 inactive_no_flow_1_3_0_0: flow_1_3_0_0 - 1000 edge_1_3_0_0 <= 0
 inactive_no_flow_1_4_0_0: flow_1_4_0_0 - 1000 edge_1_4_0_0 <= 0
 inactive_no_flow_1_5_0_0: flow_1_5_0_0 - 1000 edge_1_5_0_0 <= 0
 inactive_no_flow_1_6_0_0: flow_1_6_0_0 - 1000 edge_1_6_0_0 <= 0
 inactive_no_flow_1_7_0_0: flow_1_7_0_0 - 1000 edge_1_7_0_0 <= 0
 inactive_no_flow_1_8_0_0: flow_1_8_0_0 - 1000 edge_1_8_0_0 <= 0
 inactive_no_flow_1_9_0_0: flow_1_9_0_0 - 1000 edge_1_9_0_0 <= 0
 inactive_no_flow_1_11_0_0: flow_1_11_0_0 - 1000 edge_1_11_0_0 <= 0
 inactive_no_flow_1_12_0_0: flow_1_12_0_0 - 1000 edge_1_12_0_0 <= 0
 inactive_no_flow_1_13_0_0: flow_1_13_0_0 - 1000 edge_1_13_0_0 <= 0
 inactive_no_flow_1_14_0_0: flow_1_14_0_0 - 1000 edge_1_14_0_0 <= 0
 inactive_no_flow_1_15_0_0: flow_1_15_0_0 - 1000 edge_1_15_0_0 <= 0
 inactive_no_flow_1_16_0_0: flow_1_16_0_0 - 1000 edge_1_16_0_0 <= 0
 inactive_no_flow_1_17_0_0: flow_1_17_0_0 - 1000 edge_1_17_0_0 <= 0
 inactive_no_flow_1_19_0_0: flow_1_19_0_0 - 1000 edge_1_19_0_0 <= 0
 inactive_no_flow_1_21_0_0: flow_1_21_0_0 - 1000 edge_1_21_0_0 <= 0
 inactive_no_flow_1_22_0_0: flow_1_22_0_0 - 1000 edge_1_22_0_0 <= 0
 inactive_no_flow_2_1_0_0: flow_2_1_0_0 - 1000 edge_2_1_0_0 <= 0
 inactive_no_flow_2_3_0_0: flow_2_3_0_0 - 1000 edge_2_3_0_0 <= 0
 inactive_no_flow_2_4_0_0: flow_2_4_0_0 - 1000 edge_2_4_0_0 <= 0
 inactive_no_flow_2_5_0_0: flow_2_5_0_0 - 1000 edge_2_5_0_0 <= 0
 inactive_no_flow_2_6_0_0: flow_2_6_0_0 - 1000 edge_2_6_0_0 <= 0
 inactive_no_flow_2_7_0_0: flow_2_7_0_0 - 1000 edge_2_7_0_0 <= 0
 inactive_no_flow_2_8_0_0: flow_2_8_0_0 - 1000 edge_2_8_0_0 <= 0
 inactive_no_flow_2_9_0_0: flow_2_9_0_0 - 1000 edge_2_9_0_0 <= 0
 inactive_no_flow_2_11_0_0: flow_2_11_0_0 - 1000 edge_2_11_0_0 <= 0
 inactive_no_flow_2_13_0_0: flow_2_13_0_0 - 1000 edge_2_13_0_0 <= 0
 inactive_no_flow_2_22_0_0: flow_2_22_0_0 - 1000 edge_2_22_0_0 <= 0
 inactive_no_flow_3_1_0_0: flow_3_1_0_0 - 1000 edge_3_1_0_0 <= 0
 inactive_no_flow_3_2_0_0: flow_3_2_0_0 - 1000 edge_3_2_0_0 <= 0
 inactive_no_flow_3_4_0_0: flow_3_4_0_0 - 1000 edge_3_4_0_0 <= 0
 inactive_no_flow_3_5_0_0: flow_3_5_0_0 - 1000 edge_3_5_0_0 <= 0
 inactive_no_flow_3_6_0_0: flow_3_6_0_0 - 1000 edge_3_6_0_0 <= 0
 inactive_no_flow_3_7_0_0: flow_3_7_0_0 - 1000 edge_3_7_0_0 <= 0
 inactive_no_flow_3_8_0_0: flow_3_8_0_0 - 1000 edge_3_8_0_0 <= 0
 inactive_no_flow_3_9_0_0: flow_3_9_0_0 - 1000 edge_3_9_0_0 <= 0
 inactive_no_flow_3_10_0_0: flow_3_10_0_0 - 1000 edge_3_10_0_0 <= 0
 inactive_no_flow_3_11_0_0: flow_3_11_0_0 - 1000 edge_3_11_0_0 <= 0
 inactive_no_flow_3_12_0_0: flow_3_12_0_0 - 1000 edge_3_12_0_0 <= 0
 inactive_no_flow_3_13_0_0: flow_3_13_0_0 - 1000 edge_3_13_0_0 <= 0
 inactive_no_flow_3_14_0_0: flow_3_14_0_0 - 1000 edge_3_14_0_0 <= 0
 inactive_no_flow_3_15_0_0: flow_3_15_0_0 - 1000 edge_3_15_0_0 <= 0
 inactive_no_flow_3_17_0_0: flow_3_17_0_0 - 1000 edge_3_17_0_0 <= 0
 inactive_no_flow_3_19_0_0: flow_3_19_0_0 - 1000 edge_3_19_0_0 <= 0
 inactive_no_flow_3_21_0_0: flow_3_21_0_0 - 1000 edge_3_21_0_0 <= 0
 inactive_no_flow_3_22_0_0: flow_3_22_0_0 - 1000 edge_3_22_0_0 <= 0
 inactive_no_flow_4_1_0_0: flow_4_1_0_0 - 1000 edge_4_1_0_0 <= 0
 inactive_no_flow_4_2_0_0: flow_4_2_0_0 - 1000 edge_4_2_0_0 <= 0
 inactive_no_flow_4_3_0_0: flow_4_3_0_0 - 1000 edge_4_3_0_0 <= 0
 inactive_no_flow_4_5_0_0: flow_4_5_0_0 - 1000 edge_4_5_0_0 <= 0
 inactive_no_flow_4_6_0_0: flow_4_6_0_0 - 1000 edge_4_6_0_0 <= 0
 inactive_no_flow_4_7_0_0: flow_4_7_0_0 - 1000 edge_4_7_0_0 <= 0
 inactive_no_flow_4_8_0_0: flow_4_8_0_0 - 1000 edge_4_8_0_0 <= 0
 inactive_no_flow_4_9_0_0: flow_4_9_0_0 - 1000 edge_4_9_0_0 <= 0
 inactive_no_flow_4_10_0_0: flow_4_10_0_0 - 1000 edge_4_10_0_0 <= 0
 inactive_no_flow_4_11_0_0: flow_4_11_0_0 - 1000 edge_4_11_0_0 <= 0
 inactive_no_flow_4_12_0_0: flow_4_12_0_0 - 1000 edge_4_12_0_0 <= 0
 inactive_no_flow_4_13_0_0: flow_4_13_0_0 - 1000 edge_4_13_0_0 <= 0
 inactive_no_flow_4_14_0_0: flow_4_14_0_0 - 1000 edge_4_14_0_0 <= 0
 inactive_no_flow_4_15_0_0: flow_4_15_0_0 - 1000 edge_4_15_0_0 <= 0
 inactive_no_flow_4_16_0_0: flow_4_16_0_0 - 1000 edge_4_16_0_0 <= 0
 inactive_no_flow_4_17_0_0: flow_4_17_0_0 - 1000 edge_4_17_0_0 <= 0
 inactive_no_flow_4_19_0_0: flow_4_19_0_0 - 1000 edge_4_19_0_0 <= 0
 inactive_no_flow_4_21_0_0: flow_4_21_0_0 - 1000 edge_4_21_0_0 <= 0
 inactive_no_flow_4_22_0_0: flow_4_22_0_0 - 1000 edge_4_22_0_0 <= 0
 inactive_no_flow_5_6_0_0: flow_5_6_0_0 - 1000 edge_5_6_0_0 <= 0
 inactive_no_flow_5_8_0_0: flow_5_8_0_0 - 1000 edge_5_8_0_0 <= 0
 inactive_no_flow_5_9_0_0: flow_5_9_0_0 - 1000 edge_5_9_0_0 <= 0
 inactive_no_flow_6_1_0_0: flow_6_1_0_0 - 1000 edge_6_1_0_0 <= 0
 inactive_no_flow_6_2_0_0: flow_6_2_0_0 - 1000 edge_6_2_0_0 <= 0
 inactive_no_flow_6_3_0_0: flow_6_3_0_0 - 1000 edge_6_3_0_0 <= 0
 inactive_no_flow_6_4_0_0: flow_6_4_0_0 - 1000 edge_6_4_0_0 <= 0
 inactive_no_flow_6_5_0_0: flow_6_5_0_0 - 1000 edge_6_5_0_0 <= 0
 inactive_no_flow_6_7_0_0: flow_6_7_0_0 - 1000 edge_6_7_0_0 <= 0
 inactive_no_flow_6_8_0_0: flow_6_8_0_0 - 1000 edge_6_8_0_0 <= 0
 inactive_no_flow_6_9_0_0: flow_6_9_0_0 - 1000 edge_6_9_0_0 <= 0
 inactive_no_flow_6_10_0_0: flow_6_10_0_0 - 1000 edge_6_10_0_0 <= 0
 inactive_no_flow_6_11_0_0: flow_6_11_0_0 - 1000 edge_6_11_0_0 <= 0
 inactive_no_flow_6_12_0_0: flow_6_12_0_0 - 1000 edge_6_12_0_0 <= 0
 inactive_no_flow_6_13_0_0: flow_6_13_0_0 - 1000 edge_6_13_0_0 <= 0
 inactive_no_flow_6_14_0_0: flow_6_14_0_0 - 1000 edge_6_14_0_0 <= 0
 inactive_no_flow_6_15_0_0: flow_6_15_0_0 - 1000 edge_6_15_0_0 <= 0
 inactive_no_flow_6_16_0_0: flow_6_16_0_0 - 1000 edge_6_16_0_0 <= 0
 inactive_no_flow_6_17_0_0: flow_6_17_0_0 - 1000 edge_6_17_0_0 <= 0
 inactive_no_flow_6_19_0_0: flow_6_19_0_0 - 1000 edge_6_19_0_0 <= 0
 inactive_no_flow_6_21_0_0: flow_6_21_0_0 - 1000 edge_6_21_0_0 <= 0
 inactive_no_flow_6_22_0_0: flow_6_22_0_0 - 1000 edge_6_22_0_0 <= 0
 inactive_no_flow_8_5_0_0: flow_8_5_0_0 - 1000 edge_8_5_0_0 <= 0
 inactive_no_flow_8_6_0_0: flow_8_6_0_0 - 1000 edge_8_6_0_0 <= 0
 inactive_no_flow_8_9_0_0: flow_8_9_0_0 - 1000 edge_8_9_0_0 <= 0
 inactive_no_flow_9_1_0_0: flow_9_1_0_0 - 1000 edge_9_1_0_0 <= 0
 inactive_no_flow_9_2_0_0: flow_9_2_0_0 - 1000 edge_9_2_0_0 <= 0
 inactive_no_flow_9_3_0_0: flow_9_3_0_0 - 1000 edge_9_3_0_0 <= 0
 inactive_no_flow_9_4_0_0: flow_9_4_0_0 - 1000 edge_9_4_0_0 <= 0
 inactive_no_flow_9_5_0_0: flow_9_5_0_0 - 1000 edge_9_5_0_0 <= 0
 inactive_no_flow_9_6_0_0: flow_9_6_0_0 - 1000 edge_9_6_0_0 <= 0
 inactive_no_flow_9_7_0_0: flow_9_7_0_0 - 1000 edge_9_7_0_0 <= 0
 inactive_no_flow_9_8_0_0: flow_9_8_0_0 - 1000 edge_9_8_0_0 <= 0
 inactive_no_flow_9_10_0_0: flow_9_10_0_0 - 1000 edge_9_10_0_0 <= 0
 inactive_no_flow_9_11_0_0: flow_9_11_0_0 - 1000 edge_9_11_0_0 <= 0
 inactive_no_flow_9_12_0_0: flow_9_12_0_0 - 1000 edge_9_12_0_0 <= 0
 inactive_no_flow_9_13_0_0: flow_9_13_0_0 - 1000 edge_9_13_0_0 <= 0
 inactive_no_flow_9_14_0_0: flow_9_14_0_0 - 1000 edge_9_14_0_0 <= 0
 inactive_no_flow_9_15_0_0: flow_9_15_0_0 - 1000 edge_9_15_0_0 <= 0
 inactive_no_flow_9_16_0_0: flow_9_16_0_0 - 1000 edge_9_16_0_0 <= 0
 inactive_no_flow_9_17_0_0: flow_9_17_0_0 - 1000 edge_9_17_0_0 <= 0
 inactive_no_flow_9_19_0_0: flow_9_19_0_0 - 1000 edge_9_19_0_0 <= 0
 inactive_no_flow_9_20_0_0: flow_9_20_0_0 - 1000 edge_9_20_0_0 <= 0
 inactive_no_flow_9_21_0_0: flow_9_21_0_0 - 1000 edge_9_21_0_0 <= 0
 inactive_no_flow_9_22_0_0: flow_9_22_0_0 - 1000 edge_9_22_0_0 <= 0
 inactive_no_flow_10_11_0_0: flow_10_11_0_0 - 1000 edge_10_11_0_0 <= 0
 inactive_no_flow_10_14_0_0: flow_10_14_0_0 - 1000 edge_10_14_0_0 <= 0
 inactive_no_flow_11_1_0_0: flow_11_1_0_0 - 1000 edge_11_1_0_0 <= 0
 inactive_no_flow_11_2_0_0: flow_11_2_0_0 - 1000 edge_11_2_0_0 <= 0
 inactive_no_flow_11_3_0_0: flow_11_3_0_0 - 1000 edge_11_3_0_0 <= 0
 inactive_no_flow_11_4_0_0: flow_11_4_0_0 - 1000 edge_11_4_0_0 <= 0
 inactive_no_flow_11_5_0_0: flow_11_5_0_0 - 1000 edge_11_5_0_0 <= 0
 inactive_no_flow_11_6_0_0: flow_11_6_0_0 - 1000 edge_11_6_0_0 <= 0
 inactive_no_flow_11_7_0_0: flow_11_7_0_0 - 1000 edge_11_7_0_0 <= 0
 inactive_no_flow_11_8_0_0: flow_11_8_0_0 - 1000 edge_11_8_0_0 <= 0
 inactive_no_flow_11_9_0_0: flow_11_9_0_0 - 1000 edge_11_9_0_0 <= 0
 inactive_no_flow_11_10_0_0: flow_11_10_0_0 - 1000 edge_11_10_0_0 <= 0
 inactive_no_flow_11_12_0_0: flow_11_12_0_0 - 1000 edge_11_12_0_0 <= 0
 inactive_no_flow_11_13_0_0: flow_11_13_0_0 - 1000 edge_11_13_0_0 <= 0
 inactive_no_flow_11_14_0_0: flow_11_14_0_0 - 1000 edge_11_14_0_0 <= 0
 inactive_no_flow_11_15_0_0: flow_11_15_0_0 - 1000 edge_11_15_0_0 <= 0
 inactive_no_flow_11_16_0_0: flow_11_16_0_0 - 1000 edge_11_16_0_0 <= 0
 inactive_no_flow_11_17_0_0: flow_11_17_0_0 - 1000 edge_11_17_0_0 <= 0
 inactive_no_flow_11_19_0_0: flow_11_19_0_0 - 1000 edge_11_19_0_0 <= 0
 inactive_no_flow_11_20_0_0: flow_11_20_0_0 - 1000 edge_11_20_0_0 <= 0
 inactive_no_flow_11_21_0_0: flow_11_21_0_0 - 1000 edge_11_21_0_0 <= 0
 inactive_no_flow_11_22_0_0: flow_11_22_0_0 - 1000 edge_11_22_0_0 <= 0
 inactive_no_flow_12_14_0_0: flow_12_14_0_0 - 1000 edge_12_14_0_0 <= 0
 inactive_no_flow_13_5_0_0: flow_13_5_0_0 - 1000 edge_13_5_0_0 <= 0
 inactive_no_flow_13_6_0_0: flow_13_6_0_0 - 1000 edge_13_6_0_0 <= 0
 inactive_no_flow_13_14_0_0: flow_13_14_0_0 - 1000 edge_13_14_0_0 <= 0
 inactive_no_flow_13_15_0_0: flow_13_15_0_0 - 1000 edge_13_15_0_0 <= 0
 inactive_no_flow_13_16_0_0: flow_13_16_0_0 - 1000 edge_13_16_0_0 <= 0
 inactive_no_flow_13_17_0_0: flow_13_17_0_0 - 1000 edge_13_17_0_0 <= 0
 inactive_no_flow_13_19_0_0: flow_13_19_0_0 - 1000 edge_13_19_0_0 <= 0
 inactive_no_flow_14_1_0_0: flow_14_1_0_0 - 1000 edge_14_1_0_0 <= 0
 inactive_no_flow_14_2_0_0: flow_14_2_0_0 - 1000 edge_14_2_0_0 <= 0
 inactive_no_flow_14_3_0_0: flow_14_3_0_0 - 1000 edge_14_3_0_0 <= 0
 inactive_no_flow_14_4_0_0: flow_14_4_0_0 - 1000 edge_14_4_0_0 <= 0
 inactive_no_flow_14_5_0_0: flow_14_5_0_0 - 1000 edge_14_5_0_0 <= 0
 inactive_no_flow_14_6_0_0: flow_14_6_0_0 - 1000 edge_14_6_0_0 <= 0
 inactive_no_flow_14_7_0_0: flow_14_7_0_0 - 1000 edge_14_7_0_0 <= 0
 inactive_no_flow_14_8_0_0: flow_14_8_0_0 - 1000 edge_14_8_0_0 <= 0
 inactive_no_flow_14_9_0_0: flow_14_9_0_0 - 1000 edge_14_9_0_0 <= 0
 inactive_no_flow_14_10_0_0: flow_14_10_0_0 - 1000 edge_14_10_0_0 <= 0
 inactive_no_flow_14_11_0_0: flow_14_11_0_0 - 1000 edge_14_11_0_0 <= 0
 inactive_no_flow_14_12_0_0: flow_14_12_0_0 - 1000 edge_14_12_0_0 <= 0
 inactive_no_flow_14_13_0_0: flow_14_13_0_0 - 1000 edge_14_13_0_0 <= 0
 inactive_no_flow_14_15_0_0: flow_14_15_0_0 - 1000 edge_14_15_0_0 <= 0
 inactive_no_flow_14_16_0_0: flow_14_16_0_0 - 1000 edge_14_16_0_0 <= 0
 inactive_no_flow_14_17_0_0: flow_14_17_0_0 - 1000 edge_14_17_0_0 <= 0
 inactive_no_flow_14_19_0_0: flow_14_19_0_0 - 1000 edge_14_19_0_0 <= 0
 inactive_no_flow_14_20_0_0: flow_14_20_0_0 - 1000 edge_14_20_0_0 <= 0
 inactive_no_flow_14_21_0_0: flow_14_21_0_0 - 1000 edge_14_21_0_0 <= 0
 inactive_no_flow_14_22_0_0: flow_14_22_0_0 - 1000 edge_14_22_0_0 <= 0
 inactive_no_flow_15_13_0_0: flow_15_13_0_0 - 1000 edge_15_13_0_0 <= 0
 inactive_no_flow_15_14_0_0: flow_15_14_0_0 - 1000 edge_15_14_0_0 <= 0
 inactive_no_flow_15_16_0_0: flow_15_16_0_0 - 1000 edge_15_16_0_0 <= 0
 inactive_no_flow_15_17_0_0: flow_15_17_0_0 - 1000 edge_15_17_0_0 <= 0
 inactive_no_flow_16_13_0_0: flow_16_13_0_0 - 1000 edge_16_13_0_0 <= 0
 inactive_no_flow_16_14_0_0: flow_16_14_0_0 - 1000 edge_16_14_0_0 <= 0
 inactive_no_flow_16_15_0_0: flow_16_15_0_0 - 1000 edge_16_15_0_0 <= 0
 inactive_no_flow_16_17_0_0: flow_16_17_0_0 - 1000 edge_16_17_0_0 <= 0
 inactive_no_flow_16_19_0_0: flow_16_19_0_0 - 1000 edge_16_19_0_0 <= 0
 inactive_no_flow_16_21_0_0: flow_16_21_0_0 - 1000 edge_16_21_0_0 <= 0
 inactive_no_flow_16_22_0_0: flow_16_22_0_0 - 1000 edge_16_22_0_0 <= 0
 inactive_no_flow_17_2_0_0: flow_17_2_0_0 - 1000 edge_17_2_0_0 <= 0
 inactive_no_flow_17_5_0_0: flow_17_5_0_0 - 1000 edge_17_5_0_0 <= 0
 inactive_no_flow_17_10_0_0: flow_17_10_0_0 - 1000 edge_17_10_0_0 <= 0
 inactive_no_flow_17_11_0_0: flow_17_11_0_0 - 1000 edge_17_11_0_0 <= 0
 inactive_no_flow_17_12_0_0: flow_17_12_0_0 - 1000 edge_17_12_0_0 <= 0
 inactive_no_flow_17_13_0_0: flow_17_13_0_0 - 1000 edge_17_13_0_0 <= 0
 inactive_no_flow_17_14_0_0: flow_17_14_0_0 - 1000 edge_17_14_0_0 <= 0
 inactive_no_flow_17_15_0_0: flow_17_15_0_0 - 1000 edge_17_15_0_0 <= 0
 inactive_no_flow_17_16_0_0: flow_17_16_0_0 - 1000 edge_17_16_0_0 <= 0
 inactive_no_flow_17_19_0_0: flow_17_19_0_0 - 1000 edge_17_19_0_0 <= 0
 inactive_no_flow_17_20_0_0: flow_17_20_0_0 - 1000 edge_17_20_0_0 <= 0
 inactive_no_flow_17_21_0_0: flow_17_21_0_0 - 1000 edge_17_21_0_0 <= 0
 inactive_no_flow_17_22_0_0: flow_17_22_0_0 - 1000 edge_17_22_0_0 <= 0
 inactive_no_flow_19_16_0_0: flow_19_16_0_0 - 1000 edge_19_16_0_0 <= 0
 inactive_no_flow_19_17_0_0: flow_19_17_0_0 - 1000 edge_19_17_0_0 <= 0
 inactive_no_flow_19_20_0_0: flow_19_20_0_0 - 1000 edge_19_20_0_0 <= 0
 inactive_no_flow_19_21_0_0: flow_19_21_0_0 - 1000 edge_19_21_0_0 <= 0
 inactive_no_flow_21_4_0_0: flow_21_4_0_0 - 1000 edge_21_4_0_0 <= 0
 inactive_no_flow_21_13_0_0: flow_21_13_0_0 - 1000 edge_21_13_0_0 <= 0
 inactive_no_flow_21_14_0_0: flow_21_14_0_0 - 1000 edge_21_14_0_0 <= 0
 inactive_no_flow_21_15_0_0: flow_21_15_0_0 - 1000 edge_21_15_0_0 <= 0
 inactive_no_flow_21_16_0_0: flow_21_16_0_0 - 1000 edge_21_16_0_0 <= 0
 inactive_no_flow_21_17_0_0: flow_21_17_0_0 - 1000 edge_21_17_0_0 <= 0
 inactive_no_flow_21_19_0_0: flow_21_19_0_0 - 1000 edge_21_19_0_0 <= 0
 inactive_no_flow_21_20_0_0: flow_21_20_0_0 - 1000 edge_21_20_0_0 <= 0
 inactive_no_flow_21_22_0_0: flow_21_22_0_0 - 1000 edge_21_22_0_0 <= 0
 inactive_no_flow_22_20_0_0: flow_22_20_0_0 - 1000 edge_22_20_0_0 <= 0
 inactive_no_flow_22_21_0_0: flow_22_21_0_0 - 1000 edge_22_21_0_0 <= 0
Bounds
Binaries
 edge_0_1_0_0 edge_0_2_0_0 edge_0_3_0_0 edge_0_4_0_0 edge_0_6_0_0
 edge_0_9_0_0 edge_0_11_0_0 edge_1_2_0_0 edge_1_3_0_0 edge_1_4_0_0
 edge_1_5_0_0 edge_1_6_0_0 edge_1_7_0_0 edge_1_8_0_0 edge_1_9_0_0
 edge_1_11_0_0 edge_1_12_0_0 edge_1_13_0_0 edge_1_14_0_0 edge_1_15_0_0
 edge_1_16_0_0 edge_1_17_0_0 edge_1_19_0_0 edge_1_21_0_0 edge_1_22_0_0
 edge_2_1_0_0 edge_2_3_0_0 edge_2_4_0_0 edge_2_5_0_0 edge_2_6_0_0
 edge_2_7_0_0 edge_2_8_0_0 edge_2_9_0_0 edge_2_11_0_0 edge_2_13_0_0
 edge_2_22_0_0 edge_3_1_0_0 edge_3_2_0_0 edge_3_4_0_0 edge_3_5_0_0
 edge_3_6_0_0 edge_3_7_0_0 edge_3_8_0_0 edge_3_9_0_0 edge_3_10_0_0
 edge_3_11_0_0 edge_3_12_0_0 edge_3_13_0_0 edge_3_14_0_0 edge_3_15_0_0
 edge_3_17_0_0 edge_3_19_0_0 edge_3_21_0_0 edge_3_22_0_0 edge_4_1_0_0
 edge_4_2_0_0 edge_4_3_0_0 edge_4_5_0_0 edge_4_6_0_0 edge_4_7_0_0
 edge_4_8_0_0 edge_4_9_0_0 edge_4_10_0_0 edge_4_11_0_0 edge_4_12_0_0
 edge_4_13_0_0 edge_4_14_0_0 edge_4_15_0_0 edge_4_16_0_0 edge_4_17_0_0
 edge_4_19_0_0 edge_4_21_0_0 edge_4_22_0_0 edge_5_6_0_0 edge_5_8_0_0
 edge_5_9_0_0 edge_6_1_0_0 edge_6_2_0_0 edge_6_3_0_0 edge_6_4_0_0
 edge_6_5_0_0 edge_6_7_0_0 edge_6_8_0_0 edge_6_9_0_0 edge_6_10_0_0
 edge_6_11_0_0 edge_6_12_0_0 edge_6_13_0_0 edge_6_14_0_0 edge_6_15_0_0
 edge_6_16_0_0 edge_6_17_0_0 edge_6_19_0_0 edge_6_21_0_0 edge_6_22_0_0
 edge_8_5_0_0 edge_8_6_0_0 edge_8_9_0_0 edge_9_1_0_0 edge_9_2_0_0
 edge_9_3_0_0 edge_9_4_0_0 edge_9_5_0_0 edge_9_6_0_0 edge_9_7_0_0
 edge_9_8_0_0 edge_9_10_0_0 edge_9_11_0_0 edge_9_12_0_0 edge_9_13_0_0
 edge_9_14_0_0 edge_9_15_0_0 edge_9_16_0_0 edge_9_17_0_0 edge_9_19_0_0
 edge_9_20_0_0 edge_9_21_0_0 edge_9_22_0_0 edge_10_11_0_0 edge_10_14_0_0
 edge_11_1_0_0 edge_11_2_0_0 edge_11_3_0_0 edge_11_4_0_0 edge_11_5_0_0
 edge_11_6_0_0 edge_11_7_0_0 edge_11_8_0_0 edge_11_9_0_0 edge_11_10_0_0
 edge_11_12_0_0 edge_11_13_0_0 edge_11_14_0_0 edge_11_15_0_0 edge_11_16_0_0
 edge_11_17_0_0 edge_11_19_0_0 edge_11_20_0_0 edge_11_21_0_0 edge_11_22_0_0
 edge_12_14_0_0 edge_13_5_0_0 edge_13_6_0_0 edge_13_14_0_0 edge_13_15_0_0
 edge_13_16_0_0 edge_13_17_0_0 edge_13_19_0_0 edge_14_1_0_0 edge_14_2_0_0
 edge_14_3_0_0 edge_14_4_0_0 edge_14_5_0_0 edge_14_6_0_0 edge_14_7_0_0
 edge_14_8_0_0 edge_14_9_0_0 edge_14_10_0_0 edge_14_11_0_0 edge_14_12_0_0
 edge_14_13_0_0 edge_14_15_0_0 edge_14_16_0_0 edge_14_17_0_0 edge_14_19_0_0
 edge_14_20_0_0 edge_14_21_0_0 edge_14_22_0_0 edge_15_13_0_0 edge_15_14_0_0
 edge_15_16_0_0 edge_15_17_0_0 edge_16_13_0_0 edge_16_14_0_0 edge_16_15_0_0
 edge_16_17_0_0 edge_16_19_0_0 edge_16_21_0_0 edge_16_22_0_0 edge_17_2_0_0
 edge_17_5_0_0 edge_17_10_0_0 edge_17_11_0_0 edge_17_12_0_0 edge_17_13_0_0
 edge_17_14_0_0 edge_17_15_0_0 edge_17_16_0_0 edge_17_19_0_0 edge_17_20_0_0
 edge_17_21_0_0 edge_17_22_0_0 edge_19_16_0_0 edge_19_17_0_0 edge_19_20_0_0
 edge_19_21_0_0 edge_21_4_0_0 edge_21_13_0_0 edge_21_14_0_0 edge_21_15_0_0
 edge_21_16_0_0 edge_21_17_0_0 edge_21_19_0_0 edge_21_20_0_0 edge_21_22_0_0
 edge_22_20_0_0 edge_22_21_0_0
End
